NAME: a280
TYPE: TOUR
DIMENSION: 280
TOUR_SECTION
1
280
2
3
279
278
4
277
276
275
274
273
272
271
16
17
18
19
20
21
133
132
131
130
129
128
127
126
125
124
123
122
121
120
119
157
158
159
160
175
161
162
163
164
165
166
167
168
169
102
101
100
99
103
104
108
109
89
81
82
83
84
85
86
116
115
117
118
61
60
43
42
41
40
39
38
37
35
36
62
63
64
59
44
57
58
45
56
55
46
47
54
48
53
49
52
50
51
114
111
65
66
67
70
71
72
73
74
75
77
78
76
68
69
87
113
88
112
80
79
90
91
92
93
94
95
96
97
98
110
105
106
107
173
174
170
171
172
30
31
32
29
28
27
26
22
25
23
24
33
34
154
155
153
156
152
151
177
176
181
180
179
182
183
184
185
187
186
189
188
190
191
192
178
150
134
270
269
268
267
266
265
264
263
262
261
260
259
258
257
256
255
252
209
210
211
214
215
218
219
222
221
220
217
216
213
212
207
206
205
204
203
223
224
225
226
227
228
229
230
251
250
247
245
246
239
238
237
236
235
234
233
232
231
244
241
243
242
240
249
248
254
253
208
140
141
148
139
149
142
147
146
143
144
145
199
198
197
194
195
196
201
202
193
200
138
137
136
135
15
13
12
11
10
8
7
9
14
5
6
EOF